190447
15,89,63,39,5,61,1,71,99,34,31,52,32,72,17,6,62,50,98,80,68,12,51,54,7,11,92,22,96,28,29,4,64,30,105,97,41,8,56,91,79,88,82,33,25,73,42,78,90,59,95,2,77,93,104,100,69,48,36,37,40,10,103,66,94,53,35,84,47,70,38,83,81,74,60,13,101,23,75,57,27,43,86,26,9,65,58,0,14,3,102,46,49,18,67,44,24,21,85,45,76,20,16,55,87,19